(set-logic QF_LRA)
(declare-fun fluent_ready_plt0_p1_t1@1 () Bool)
(declare-fun fluent_ready_plt0_p0_t2@1 () Bool)
(declare-fun fluent_robot_at_r0_p0@0 () Bool)
(declare-fun fluent_robot_at_r0_p1@0 () Bool)
(declare-fun fluent_ready_plt0_p1_t2@1 () Bool)
(declare-fun fluent_robot_free_r0@0 () Bool)
(declare-fun fluent_pallet_at_plt0_p0@1 () Bool)
(declare-fun fluent_pallet_at_plt0_p1@1 () Bool)
(declare-fun fluent_pallet_at_plt0_p0@0 () Bool)
(declare-fun fluent_pallet_at_plt0_p1@0 () Bool)
(declare-fun fluent_battery_level_r0@0 () Real)
(declare-fun fluent_robot_has_r0_plt0@1 () Bool)
(declare-fun fluent_treated_plt0_t0@1 () Bool)
(declare-fun act_make_treatment@1 () Bool)
(declare-fun fluent_treated_plt0_t1@1 () Bool)
(declare-fun fluent_treated_plt0_t2@1 () Bool)
(declare-fun fluent_position_free_p0@0 () Bool)
(declare-fun fluent_position_free_p1@0 () Bool)
(declare-fun fluent_position_free_p0@1 () Bool)
(declare-fun fluent_position_free_p1@1 () Bool)
(declare-fun fluent_robot_has_r0_plt0@0 () Bool)
(declare-fun fluent_ready_plt0_p0_t0@0 () Bool)
(declare-fun fluent_ready_plt0_p1_t0@0 () Bool)
(declare-fun fluent_ready_plt0_p0_t1@0 () Bool)
(declare-fun fluent_ready_plt0_p1_t1@0 () Bool)
(declare-fun fluent_ready_plt0_p0_t2@0 () Bool)
(declare-fun fluent_ready_plt0_p1_t2@0 () Bool)
(declare-fun act_load_at_depot@1 () Bool)
(declare-fun parameter_load_at_depot_pos@1 () Real)
(declare-fun parameter_load_at_depot_r@1 () Real)
(declare-fun parameter_load_at_depot_pallet@1 () Real)
(declare-fun fluent_treated_plt0_t0@0 () Bool)
(declare-fun fluent_treated_plt0_t1@0 () Bool)
(declare-fun fluent_treated_plt0_t2@0 () Bool)
(declare-fun act_unload_at_depot@1 () Bool)
(declare-fun parameter_unload_at_depot_pos@1 () Real)
(declare-fun act_move@1 () Bool)
(declare-fun parameter_move_topos@1 () Real)
(declare-fun parameter_unload_at_depot_r@1 () Real)
(declare-fun parameter_move_frompos@1 () Real)
(declare-fun parameter_unload_at_depot_pallet@1 () Real)
(declare-fun parameter_move_r@1 () Real)
(declare-fun dur_make_treatment@1 () Real)
(declare-fun fluent_robot_at_r0_p0@1 () Bool)
(declare-fun fluent_robot_at_r0_p1@1 () Bool)
(declare-fun t@1 () Real)
(declare-fun fluent_battery_level_r0@1 () Real)
(declare-fun parameter_make_treatment_t@1 () Real)
(declare-fun parameter_make_treatment_pallet@1 () Real)
(declare-fun act_load@1 () Bool)
(declare-fun parameter_load_t@1 () Real)
(declare-fun parameter_make_treatment_r@1 () Real)
(declare-fun parameter_load_pos@1 () Real)
(declare-fun parameter_make_treatment_pos@1 () Real)
(declare-fun parameter_load_pallet@1 () Real)
(declare-fun parameter_load_r@1 () Real)
(declare-fun fluent_robot_free_r0@1 () Bool)
(declare-fun fluent_ready_plt0_p0_t0@1 () Bool)
(declare-fun fluent_ready_plt0_p1_t0@1 () Bool)
(declare-fun fluent_ready_plt0_p0_t1@1 () Bool)
(assert (let ((.def_0 (= parameter_load_r@1 0.0))) (let ((.def_1 (= parameter_load_pallet@1 3.0))) (let ((.def_2 (= parameter_make_treatment_pos@1 2.0))) (let ((.def_3 (= parameter_make_treatment_pos@1 1.0))) (let ((.def_4 (or .def_3 .def_2))) (let ((.def_5 (= parameter_load_pos@1 2.0))) (let ((.def_6 (= parameter_load_pos@1 1.0))) (let ((.def_7 (or .def_6 .def_5))) (let ((.def_8 (= parameter_make_treatment_r@1 0.0))) (let ((.def_9 (= parameter_load_t@1 6.0))) (let ((.def_10 (= parameter_load_t@1 5.0))) (let ((.def_11 (= parameter_load_t@1 4.0))) (let ((.def_12 (or .def_11 .def_10 .def_9))) (let ((.def_13 (= parameter_make_treatment_pallet@1 3.0))) (let ((.def_14 (= parameter_make_treatment_t@1 6.0))) (let ((.def_15 (= parameter_make_treatment_t@1 5.0))) (let ((.def_16 (= parameter_make_treatment_t@1 4.0))) (let ((.def_17 (or .def_16 .def_15 .def_14))) (let ((.def_18 (<= fluent_battery_level_r0@1 100.0))) (let ((.def_19 (<= 0.0 fluent_battery_level_r0@1))) (let ((.def_20 (= parameter_move_r@1 0.0))) (let ((.def_21 (= parameter_unload_at_depot_pallet@1 3.0))) (let ((.def_22 (= parameter_move_frompos@1 2.0))) (let ((.def_23 (= parameter_move_frompos@1 1.0))) (let ((.def_24 (or .def_23 .def_22))) (let ((.def_25 (= parameter_unload_at_depot_r@1 0.0))) (let ((.def_26 (= parameter_move_topos@1 2.0))) (let ((.def_27 (= parameter_move_topos@1 1.0))) (let ((.def_28 (or .def_27 .def_26))) (let ((.def_29 (= parameter_unload_at_depot_pos@1 2.0))) (let ((.def_30 (= parameter_unload_at_depot_pos@1 1.0))) (let ((.def_31 (or .def_30 .def_29))) (let ((.def_32 (= parameter_load_at_depot_pallet@1 3.0))) (let ((.def_33 (= parameter_load_at_depot_r@1 0.0))) (let ((.def_34 (= parameter_load_at_depot_pos@1 2.0))) (let ((.def_35 (= parameter_load_at_depot_pos@1 1.0))) (let ((.def_36 (or .def_35 .def_34))) (let ((.def_37 (and act_move@1 true .def_20))) (let ((.def_38 (= fluent_battery_level_r0@0 fluent_battery_level_r0@1))) (let ((.def_39 (not .def_38))) (let ((.def_40 (=> .def_39 .def_37))) (let ((.def_41 (and act_make_treatment@1 true .def_13 .def_2))) (let ((.def_42 (and act_unload_at_depot@1 true .def_21 .def_29))) (let ((.def_43 (and .def_42 .def_41))) (let ((.def_44 (not .def_43))) (let ((.def_45 (and act_load_at_depot@1 true .def_32 .def_34))) (let ((.def_46 (and .def_45 .def_41))) (let ((.def_47 (not .def_46))) (let ((.def_48 (and .def_45 .def_42))) (let ((.def_49 (not .def_48))) (let ((.def_50 (and act_load@1 true .def_1 .def_5))) (let ((.def_51 (and .def_50 .def_41))) (let ((.def_52 (not .def_51))) (let ((.def_53 (and .def_50 .def_42))) (let ((.def_54 (not .def_53))) (let ((.def_55 (and .def_50 .def_45))) (let ((.def_56 (not .def_55))) (let ((.def_57 (or .def_50 .def_45 .def_42 .def_41))) (let ((.def_58 (= fluent_pallet_at_plt0_p1@0 fluent_pallet_at_plt0_p1@1))) (let ((.def_59 (not .def_58))) (let ((.def_60 (=> .def_59 .def_57))) (let ((.def_61 (and act_make_treatment@1 true .def_13 .def_3))) (let ((.def_62 (and act_unload_at_depot@1 true .def_21 .def_30))) (let ((.def_63 (and .def_62 .def_61))) (let ((.def_64 (not .def_63))) (let ((.def_65 (and act_load_at_depot@1 true .def_32 .def_35))) (let ((.def_66 (and .def_65 .def_61))) (let ((.def_67 (not .def_66))) (let ((.def_68 (and .def_65 .def_62))) (let ((.def_69 (not .def_68))) (let ((.def_70 (and act_load@1 true .def_1 .def_6))) (let ((.def_71 (and .def_70 .def_61))) (let ((.def_72 (not .def_71))) (let ((.def_73 (and .def_70 .def_62))) (let ((.def_74 (not .def_73))) (let ((.def_75 (and .def_70 .def_65))) (let ((.def_76 (not .def_75))) (let ((.def_77 (or .def_70 .def_65 .def_62 .def_61))) (let ((.def_78 (= fluent_pallet_at_plt0_p0@0 fluent_pallet_at_plt0_p0@1))) (let ((.def_79 (not .def_78))) (let ((.def_80 (=> .def_79 .def_77))) (let ((.def_81 (and act_load@1 true .def_1 .def_9))) (let ((.def_82 (= fluent_treated_plt0_t2@0 fluent_treated_plt0_t2@1))) (let ((.def_83 (not .def_82))) (let ((.def_84 (=> .def_83 .def_81))) (let ((.def_85 (and act_load@1 true .def_1 .def_10))) (let ((.def_86 (= fluent_treated_plt0_t1@0 fluent_treated_plt0_t1@1))) (let ((.def_87 (not .def_86))) (let ((.def_88 (=> .def_87 .def_85))) (let ((.def_89 (and act_load@1 true .def_1 .def_11))) (let ((.def_90 (= fluent_treated_plt0_t0@0 fluent_treated_plt0_t0@1))) (let ((.def_91 (not .def_90))) (let ((.def_92 (=> .def_91 .def_89))) (let ((.def_93 (and act_make_treatment@1 true .def_2))) (let ((.def_94 (and act_load@1 true .def_5))) (let ((.def_95 (and .def_94 .def_93))) (let ((.def_96 (not .def_95))) (let ((.def_97 (or .def_94 .def_93))) (let ((.def_98 (= fluent_position_free_p1@0 fluent_position_free_p1@1))) (let ((.def_99 (not .def_98))) (let ((.def_100 (=> .def_99 .def_97))) (let ((.def_101 (and act_make_treatment@1 true .def_3))) (let ((.def_102 (and act_load@1 true .def_6))) (let ((.def_103 (and .def_102 .def_101))) (let ((.def_104 (not .def_103))) (let ((.def_105 (or .def_102 .def_101))) (let ((.def_106 (= fluent_position_free_p0@0 fluent_position_free_p0@1))) (let ((.def_107 (not .def_106))) (let ((.def_108 (=> .def_107 .def_105))) (let ((.def_109 (+ t@1 2.0))) (let ((.def_110 (= t@1 .def_109))) (let ((.def_111 (and act_make_treatment@1 true .def_110 .def_13 .def_2 .def_14))) (let ((.def_112 (and act_load@1 true .def_1 .def_5 .def_9))) (let ((.def_113 (and .def_112 .def_111))) (let ((.def_114 (not .def_113))) (let ((.def_115 (or .def_112 .def_111))) (let ((.def_116 (= fluent_ready_plt0_p1_t2@0 fluent_ready_plt0_p1_t2@1))) (let ((.def_117 (not .def_116))) (let ((.def_118 (=> .def_117 .def_115))) (let ((.def_119 (and act_make_treatment@1 true .def_110 .def_13 .def_3 .def_14))) (let ((.def_120 (and act_load@1 true .def_1 .def_6 .def_9))) (let ((.def_121 (and .def_120 .def_119))) (let ((.def_122 (not .def_121))) (let ((.def_123 (or .def_120 .def_119))) (let ((.def_124 (= fluent_ready_plt0_p0_t2@0 fluent_ready_plt0_p0_t2@1))) (let ((.def_125 (not .def_124))) (let ((.def_126 (=> .def_125 .def_123))) (let ((.def_127 (and act_make_treatment@1 true .def_110 .def_13 .def_2 .def_15))) (let ((.def_128 (and act_load@1 true .def_1 .def_5 .def_10))) (let ((.def_129 (and .def_128 .def_127))) (let ((.def_130 (not .def_129))) (let ((.def_131 (or .def_128 .def_127))) (let ((.def_132 (= fluent_ready_plt0_p1_t1@0 fluent_ready_plt0_p1_t1@1))) (let ((.def_133 (not .def_132))) (let ((.def_134 (=> .def_133 .def_131))) (let ((.def_135 (and act_make_treatment@1 true .def_110 .def_13 .def_3 .def_15))) (let ((.def_136 (and act_load@1 true .def_1 .def_6 .def_10))) (let ((.def_137 (and .def_136 .def_135))) (let ((.def_138 (not .def_137))) (let ((.def_139 (or .def_136 .def_135))) (let ((.def_140 (= fluent_ready_plt0_p0_t1@0 fluent_ready_plt0_p0_t1@1))) (let ((.def_141 (not .def_140))) (let ((.def_142 (=> .def_141 .def_139))) (let ((.def_143 (and act_make_treatment@1 true .def_110 .def_13 .def_2 .def_16))) (let ((.def_144 (and act_load@1 true .def_1 .def_5 .def_11))) (let ((.def_145 (and .def_144 .def_143))) (let ((.def_146 (not .def_145))) (let ((.def_147 (or .def_144 .def_143))) (let ((.def_148 (= fluent_ready_plt0_p1_t0@0 fluent_ready_plt0_p1_t0@1))) (let ((.def_149 (not .def_148))) (let ((.def_150 (=> .def_149 .def_147))) (let ((.def_151 (and act_make_treatment@1 true .def_110 .def_13 .def_3 .def_16))) (let ((.def_152 (and act_load@1 true .def_1 .def_6 .def_11))) (let ((.def_153 (and .def_152 .def_151))) (let ((.def_154 (not .def_153))) (let ((.def_155 (or .def_152 .def_151))) (let ((.def_156 (= fluent_ready_plt0_p0_t0@0 fluent_ready_plt0_p0_t0@1))) (let ((.def_157 (not .def_156))) (let ((.def_158 (=> .def_157 .def_155))) (let ((.def_159 (and act_make_treatment@1 true .def_8 .def_13))) (let ((.def_160 (and act_unload_at_depot@1 true .def_25 .def_21))) (let ((.def_161 (and .def_160 .def_159))) (let ((.def_162 (not .def_161))) (let ((.def_163 (and act_load_at_depot@1 true .def_33 .def_32))) (let ((.def_164 (and .def_163 .def_159))) (let ((.def_165 (not .def_164))) (let ((.def_166 (and .def_163 .def_160))) (let ((.def_167 (not .def_166))) (let ((.def_168 (and act_load@1 true .def_0 .def_1))) (let ((.def_169 (and .def_168 .def_159))) (let ((.def_170 (not .def_169))) (let ((.def_171 (and .def_168 .def_160))) (let ((.def_172 (not .def_171))) (let ((.def_173 (and .def_168 .def_163))) (let ((.def_174 (not .def_173))) (let ((.def_175 (or .def_168 .def_163 .def_160 .def_159))) (let ((.def_176 (= fluent_robot_has_r0_plt0@0 fluent_robot_has_r0_plt0@1))) (let ((.def_177 (not .def_176))) (let ((.def_178 (=> .def_177 .def_175))) (let ((.def_179 (and act_make_treatment@1 true .def_8))) (let ((.def_180 (and act_unload_at_depot@1 true .def_25))) (let ((.def_181 (and .def_180 .def_179))) (let ((.def_182 (not .def_181))) (let ((.def_183 (and act_load_at_depot@1 true .def_33))) (let ((.def_184 (and .def_183 .def_179))) (let ((.def_185 (not .def_184))) (let ((.def_186 (and .def_183 .def_180))) (let ((.def_187 (not .def_186))) (let ((.def_188 (and act_load@1 true .def_0))) (let ((.def_189 (and .def_188 .def_179))) (let ((.def_190 (not .def_189))) (let ((.def_191 (and .def_188 .def_180))) (let ((.def_192 (not .def_191))) (let ((.def_193 (and .def_188 .def_183))) (let ((.def_194 (not .def_193))) (let ((.def_195 (or .def_188 .def_183 .def_180 .def_179))) (let ((.def_196 (= fluent_robot_free_r0@0 fluent_robot_free_r0@1))) (let ((.def_197 (not .def_196))) (let ((.def_198 (=> .def_197 .def_195))) (let ((.def_199 (and act_move@1 true .def_20 .def_22))) (let ((.def_200 (and act_move@1 true .def_20 .def_26))) (let ((.def_201 (and .def_200 .def_199))) (let ((.def_202 (not .def_201))) (let ((.def_203 (or .def_200 .def_199))) (let ((.def_204 (= fluent_robot_at_r0_p1@0 fluent_robot_at_r0_p1@1))) (let ((.def_205 (not .def_204))) (let ((.def_206 (=> .def_205 .def_203))) (let ((.def_207 (and act_move@1 true .def_20 .def_23))) (let ((.def_208 (and act_move@1 true .def_20 .def_27))) (let ((.def_209 (and .def_208 .def_207))) (let ((.def_210 (not .def_209))) (let ((.def_211 (or .def_208 .def_207))) (let ((.def_212 (= fluent_robot_at_r0_p0@0 fluent_robot_at_r0_p0@1))) (let ((.def_213 (not .def_212))) (let ((.def_214 (=> .def_213 .def_211))) (let ((.def_215 (and .def_214 .def_210 .def_206 .def_202 .def_198 .def_194 .def_192 .def_190 .def_187 .def_185 .def_182 .def_178 .def_174 .def_172 .def_170 .def_167 .def_165 .def_162 .def_158 .def_154 .def_150 .def_146 .def_142 .def_138 .def_134 .def_130 .def_126 .def_122 .def_118 .def_114 .def_108 .def_104 .def_100 .def_96 .def_92 .def_88 .def_84 .def_80 .def_76 .def_74 .def_72 .def_69 .def_67 .def_64 .def_60 .def_56 .def_54 .def_52 .def_49 .def_47 .def_44 .def_40))) (let ((.def_216 (= t@1 t@1))) (let ((.def_217 (and act_move@1 act_make_treatment@1 .def_216))) (let ((.def_218 (not .def_217))) (let ((.def_219 (and act_load_at_depot@1 act_move@1 .def_216))) (let ((.def_220 (not .def_219))) (let ((.def_221 (and act_load@1 act_make_treatment@1 .def_216))) (let ((.def_222 (not .def_221))) (let ((.def_223 (and act_load_at_depot@1 act_make_treatment@1 .def_216))) (let ((.def_224 (not .def_223))) (let ((.def_225 (and act_load@1 act_load_at_depot@1 .def_216))) (let ((.def_226 (not .def_225))) (let ((.def_227 (and act_unload_at_depot@1 act_make_treatment@1 .def_216))) (let ((.def_228 (not .def_227))) (let ((.def_229 (and act_move@1 act_unload_at_depot@1 .def_216))) (let ((.def_230 (not .def_229))) (let ((.def_231 (and act_load@1 act_unload_at_depot@1 .def_216))) (let ((.def_232 (not .def_231))) (let ((.def_233 (and act_load@1 act_make_treatment@1 .def_110))) (let ((.def_234 (not .def_233))) (let ((.def_235 (and act_load_at_depot@1 act_unload_at_depot@1 .def_216))) (let ((.def_236 (not .def_235))) (let ((.def_237 (and act_load@1 act_move@1 .def_216))) (let ((.def_238 (not .def_237))) (let ((.def_239 (+ t@1 dur_make_treatment@1))) (let ((.def_240 (= t@1 .def_239))) (let ((.def_241 (and act_load@1 act_make_treatment@1 .def_240))) (let ((.def_242 (not .def_241))) (let ((.def_243 (and .def_242 .def_238 .def_236 .def_234 .def_232 .def_230 .def_228 .def_226 .def_224 .def_222 .def_220 .def_218))) (let ((.def_244 (<= 0.0 t@1))) (let ((.def_245 (and .def_13 .def_2 .def_16))) (let ((.def_246 (ite .def_245 fluent_ready_plt0_p1_t0@1 fluent_ready_plt0_p0_t0@1))) (let ((.def_247 (and .def_13 .def_3 .def_15))) (let ((.def_248 (ite .def_247 fluent_ready_plt0_p0_t1@1 .def_246))) (let ((.def_249 (and .def_13 .def_2 .def_15))) (let ((.def_250 (ite .def_249 fluent_ready_plt0_p1_t1@1 .def_248))) (let ((.def_251 (and .def_13 .def_3 .def_14))) (let ((.def_252 (ite .def_251 fluent_ready_plt0_p0_t2@1 .def_250))) (let ((.def_253 (and .def_13 .def_2 .def_14))) (let ((.def_254 (ite .def_253 fluent_ready_plt0_p1_t2@1 .def_252))) (let ((.def_255 (= .def_254 true))) (let ((.def_256 (=> true .def_255))) (let ((.def_257 (and .def_110 .def_256))) (let ((.def_258 (= fluent_robot_free_r0@1 true))) (let ((.def_259 (=> true .def_258))) (let ((.def_260 (and .def_13 .def_2))) (let ((.def_261 (ite .def_260 fluent_pallet_at_plt0_p1@1 fluent_pallet_at_plt0_p0@1))) (let ((.def_262 (= .def_261 true))) (let ((.def_263 (=> true .def_262))) (let ((.def_264 (= fluent_robot_has_r0_plt0@1 false))) (let ((.def_265 (=> true .def_264))) (let ((.def_266 (ite .def_2 fluent_position_free_p1@1 fluent_position_free_p0@1))) (let ((.def_267 (= .def_266 false))) (let ((.def_268 (=> true .def_267))) (let ((.def_269 (and .def_216 .def_268 .def_265 .def_263 .def_259))) (let ((.def_270 (ite .def_2 fluent_position_free_p1@0 fluent_position_free_p0@0))) (let ((.def_271 (and .def_13 .def_15))) (let ((.def_272 (ite .def_271 fluent_treated_plt0_t1@0 fluent_treated_plt0_t0@0))) (let ((.def_273 (and .def_13 .def_14))) (let ((.def_274 (ite .def_273 fluent_treated_plt0_t2@0 .def_272))) (let ((.def_275 (and .def_274 .def_270))) (let ((.def_276 (<= .def_239 t@1))) (let ((.def_277 (< (- 1.0) .def_239))) (let ((.def_278 (and .def_277 .def_276))) (let ((.def_279 (=> .def_278 .def_275))) (let ((.def_280 (not .def_274))) (let ((.def_281 (and .def_8 .def_2))) (let ((.def_282 (ite .def_281 fluent_robot_at_r0_p1@0 fluent_robot_at_r0_p0@0))) (let ((.def_283 (and .def_2 .def_16))) (let ((.def_284 (ite .def_283 false true))) (let ((.def_285 (and .def_3 .def_15))) (let ((.def_286 (ite .def_285 true .def_284))) (let ((.def_287 (and .def_2 .def_15))) (let ((.def_288 (ite .def_287 false .def_286))) (let ((.def_289 (and .def_3 .def_14))) (let ((.def_290 (ite .def_289 true .def_288))) (let ((.def_291 (and .def_2 .def_14))) (let ((.def_292 (ite .def_291 false .def_290))) (let ((.def_293 (and .def_292 .def_270 .def_282 fluent_robot_has_r0_plt0@0 .def_280))) (let ((.def_294 (<= t@1 t@1))) (let ((.def_295 (< (- 1.0) t@1))) (let ((.def_296 (and .def_295 .def_294))) (let ((.def_297 (=> .def_296 .def_293))) (let ((.def_298 (<= dur_make_treatment@1 4.0))) (let ((.def_299 (<= 4.0 dur_make_treatment@1))) (let ((.def_300 (and .def_299 .def_298))) (let ((.def_301 (and .def_300 .def_276 .def_297 .def_279 .def_269 .def_257))) (let ((.def_302 (=> act_make_treatment@1 .def_301))) (let ((.def_303 (and .def_21 .def_29))) (let ((.def_304 (ite .def_303 fluent_pallet_at_plt0_p1@1 fluent_pallet_at_plt0_p0@1))) (let ((.def_305 (= .def_304 true))) (let ((.def_306 (=> true .def_305))) (let ((.def_307 (and .def_25 .def_29))) (let ((.def_308 (ite .def_307 fluent_robot_at_r0_p1@0 fluent_robot_at_r0_p0@0))) (let ((.def_309 (ite .def_29 true false))) (let ((.def_310 (and .def_309 .def_308 fluent_robot_has_r0_plt0@0 .def_306 .def_259 .def_265))) (let ((.def_311 (=> act_unload_at_depot@1 .def_310))) (let ((.def_312 (and .def_32 .def_34))) (let ((.def_313 (ite .def_312 fluent_pallet_at_plt0_p1@1 fluent_pallet_at_plt0_p0@1))) (let ((.def_314 (= .def_313 false))) (let ((.def_315 (=> true .def_314))) (let ((.def_316 (= fluent_robot_has_r0_plt0@1 true))) (let ((.def_317 (=> true .def_316))) (let ((.def_318 (= fluent_robot_free_r0@1 false))) (let ((.def_319 (=> true .def_318))) (let ((.def_320 (ite .def_312 fluent_pallet_at_plt0_p1@0 fluent_pallet_at_plt0_p0@0))) (let ((.def_321 (and .def_33 .def_34))) (let ((.def_322 (ite .def_321 fluent_robot_at_r0_p1@0 fluent_robot_at_r0_p0@0))) (let ((.def_323 (ite .def_34 true false))) (let ((.def_324 (and .def_323 .def_322 fluent_robot_free_r0@0 .def_320 .def_319 .def_317 .def_315))) (let ((.def_325 (=> act_load_at_depot@1 .def_324))) (let ((.def_326 (ite .def_5 fluent_position_free_p1@1 fluent_position_free_p0@1))) (let ((.def_327 (= .def_326 true))) (let ((.def_328 (=> true .def_327))) (let ((.def_329 (and .def_1 .def_10))) (let ((.def_330 (ite .def_329 fluent_treated_plt0_t1@1 fluent_treated_plt0_t0@1))) (let ((.def_331 (and .def_1 .def_9))) (let ((.def_332 (ite .def_331 fluent_treated_plt0_t2@1 .def_330))) (let ((.def_333 (= .def_332 true))) (let ((.def_334 (=> true .def_333))) (let ((.def_335 (and .def_1 .def_5))) (let ((.def_336 (ite .def_335 fluent_pallet_at_plt0_p1@1 fluent_pallet_at_plt0_p0@1))) (let ((.def_337 (= .def_336 false))) (let ((.def_338 (=> true .def_337))) (let ((.def_339 (and .def_1 .def_5 .def_11))) (let ((.def_340 (ite .def_339 fluent_ready_plt0_p1_t0@1 fluent_ready_plt0_p0_t0@1))) (let ((.def_341 (and .def_1 .def_6 .def_10))) (let ((.def_342 (ite .def_341 fluent_ready_plt0_p0_t1@1 .def_340))) (let ((.def_343 (and .def_1 .def_5 .def_10))) (let ((.def_344 (ite .def_343 fluent_ready_plt0_p1_t1@1 .def_342))) (let ((.def_345 (and .def_1 .def_6 .def_9))) (let ((.def_346 (ite .def_345 fluent_ready_plt0_p0_t2@1 .def_344))) (let ((.def_347 (and .def_1 .def_5 .def_9))) (let ((.def_348 (ite .def_347 fluent_ready_plt0_p1_t2@1 .def_346))) (let ((.def_349 (= .def_348 false))) (let ((.def_350 (=> true .def_349))) (let ((.def_351 (ite .def_335 fluent_pallet_at_plt0_p1@0 fluent_pallet_at_plt0_p0@0))) (let ((.def_352 (and .def_0 .def_5))) (let ((.def_353 (ite .def_352 fluent_robot_at_r0_p1@0 fluent_robot_at_r0_p0@0))) (let ((.def_354 (ite .def_339 fluent_ready_plt0_p1_t0@0 fluent_ready_plt0_p0_t0@0))) (let ((.def_355 (ite .def_341 fluent_ready_plt0_p0_t1@0 .def_354))) (let ((.def_356 (ite .def_343 fluent_ready_plt0_p1_t1@0 .def_355))) (let ((.def_357 (ite .def_345 fluent_ready_plt0_p0_t2@0 .def_356))) (let ((.def_358 (ite .def_347 fluent_ready_plt0_p1_t2@0 .def_357))) (let ((.def_359 (and .def_358 .def_353 fluent_robot_free_r0@0 .def_351 .def_319 .def_350 .def_338 .def_317 .def_334 .def_328))) (let ((.def_360 (=> act_load@1 .def_359))) (let ((.def_361 (and .def_22 .def_27))) (let ((.def_362 (ite .def_361 1.0 0.0))) (let ((.def_363 (and .def_23 .def_26))) (let ((.def_364 (ite .def_363 1.0 .def_362))) (let ((.def_365 (and .def_22 .def_26))) (let ((.def_366 (ite .def_365 0.0 .def_364))) (let ((.def_367 (- fluent_battery_level_r0@0 .def_366))) (let ((.def_368 (= fluent_battery_level_r0@1 .def_367))) (let ((.def_369 (=> true .def_368))) (let ((.def_370 (and .def_20 .def_22))) (let ((.def_371 (ite .def_370 fluent_robot_at_r0_p1@1 fluent_robot_at_r0_p0@1))) (let ((.def_372 (= .def_371 false))) (let ((.def_373 (=> true .def_372))) (let ((.def_374 (and .def_20 .def_26))) (let ((.def_375 (ite .def_374 fluent_robot_at_r0_p1@1 fluent_robot_at_r0_p0@1))) (let ((.def_376 (= .def_375 true))) (let ((.def_377 (=> true .def_376))) (let ((.def_378 (<= .def_366 fluent_battery_level_r0@0))) (let ((.def_379 (ite .def_370 fluent_robot_at_r0_p1@0 fluent_robot_at_r0_p0@0))) (let ((.def_380 (= parameter_move_frompos@1 parameter_move_topos@1))) (let ((.def_381 (not .def_380))) (let ((.def_382 (and .def_381 .def_379 .def_378 .def_377 .def_373 .def_369))) (let ((.def_383 (=> act_move@1 .def_382))) (let ((.def_384 (<= 0.0 fluent_battery_level_r0@0))) (let ((.def_385 (<= fluent_battery_level_r0@0 100.0))) (let ((.def_386 (= false false))) (let ((.def_387 (= fluent_pallet_at_plt0_p0@0 false))) (let ((.def_388 (= fluent_treated_plt0_t2@0 false))) (let ((.def_389 (= fluent_treated_plt0_t1@0 false))) (let ((.def_390 (= fluent_treated_plt0_t0@0 false))) (let ((.def_391 (= fluent_ready_plt0_p1_t2@0 false))) (let ((.def_392 (= fluent_ready_plt0_p0_t2@0 false))) (let ((.def_393 (= fluent_ready_plt0_p1_t1@0 false))) (let ((.def_394 (= fluent_ready_plt0_p0_t1@0 false))) (let ((.def_395 (= fluent_ready_plt0_p1_t0@0 false))) (let ((.def_396 (= fluent_ready_plt0_p0_t0@0 false))) (let ((.def_397 (= fluent_robot_has_r0_plt0@0 false))) (let ((.def_398 (= fluent_robot_at_r0_p0@0 false))) (let ((.def_399 (= true true))) (let ((.def_400 (= fluent_position_free_p1@0 true))) (let ((.def_401 (= fluent_position_free_p0@0 true))) (let ((.def_402 (= 0.0 0.0))) (let ((.def_403 (= 1.0 1.0))) (let ((.def_404 (= fluent_battery_level_r0@0 4.0))) (let ((.def_405 (= fluent_pallet_at_plt0_p1@0 true))) (let ((.def_406 (= fluent_robot_free_r0@0 true))) (let ((.def_407 (= fluent_robot_at_r0_p1@0 true))) (let ((.def_408 (and .def_407 .def_406 .def_405 .def_404 .def_402 .def_403 .def_403 .def_402 .def_399 .def_401 .def_400 .def_399 .def_399 .def_399 .def_398 .def_397 .def_396 .def_395 .def_394 .def_393 .def_392 .def_391 .def_390 .def_389 .def_388 .def_387 .def_386 .def_386 .def_386 .def_386 .def_385 .def_384))) (let ((.def_409 (and .def_408 .def_383 .def_360 .def_325 .def_311 .def_302 .def_244 .def_243 true .def_215 .def_36 .def_33 .def_32 .def_31 .def_28 .def_25 .def_24 .def_21 .def_20 .def_19 .def_18 .def_17 .def_13 .def_12 .def_8 .def_7 .def_4 .def_1 .def_0 true))) .def_409)))))))))))))))))))))))))))))))))))))))))))))))))))))))))))))))))))))))))))))))))))))))))))))))))))))))))))))))))))))))))))))))))))))))))))))))))))))))))))))))))))))))))))))))))))))))))))))))))))))))))))))))))))))))))))))))))))))))))))))))))))))))))))))))))))))))))))))))))))))))))))))))))))))))))))))))))))))))))))))))))))))))))))))))))))))))))))))))))))))))))))))))))))))))))))))))))))))))))))))))))))))))))))
(check-sat)

--------------------------------------------------------------------------------
